%mem=500MB
%nproc=2
#p b3lyp def2svp force

Title Card Required

0 1
O                  0.00000000    0.00000000    0.12020700
H                  0.00000000    0.75703900   -0.48082800
H                  0.00000000   -0.75703900   -0.48082800

