%chk=C:\Users\DELL\Desktop\h2o_e.chk
#p opt td b3lyp def2svp

Title Card Required

0 1
 O                  0.00000000    0.00000000   -0.00004600
 H                  0.00000000    1.24175300    0.00018400
 H                  0.00000000   -1.24175300    0.00018400

