 %mem=500MB
 %nproc=2
 #p b3lyp def2svp force
 
 generate for AIMD to electronic calculate potential and force.
 
0 1
O        0.00000000E+00    0.00000000E+00    0.12020700E+00
H        0.00000000E+00    0.75703900E+00   -0.48082800E+00
H        0.00000000E+00   -0.75703900E+00   -0.48082800E+00
 
